36 18
13 563
11 218
5 482
12 539
5 514
12 623
8 326
17 183
8 287
17 717
10 377
4 645
14 825
2 201
1 340
16 433
10 87
8 560
16 201
2 975
6 32
9 484
15 880
13 641
12 605
16 354
15 219
17 798
1 4
4 821
5 162
2 49
6 824
5 66
16 372
7 127
